122 5
10 10 10 10 10 

0 0 0 0 0 0 5 2 14 26 38 50 
0 0 0 0 0 0 4 3 5 6 7 
4 0 1 0 0 0 2 8 4 
7 0 2 0 0 0 3 11 10 9 
4 0 2 0 0 0 2 12 9 
7 0 3 0 0 0 1 8 
2 0 3 0 0 0 1 8 
3 0 2 0 0 0 1 13 
4 0 3 0 0 0 1 13 
5 0 4 0 0 0 1 13 
7 0 3 0 0 0 1 13 
2 0 2 0 0 0 1 13 
0 0 0 0 0 0 1 62 
0 0 0 0 0 0 4 15 17 18 19 
1 0 0 0 1 0 4 24 23 22 16 
3 0 0 0 1 0 2 21 20 
5 0 0 0 5 0 2 23 21 
8 0 0 0 3 0 2 22 20 
9 0 0 0 2 0 1 20 
10 0 0 0 4 0 1 25 
9 0 0 0 2 0 1 25 
7 0 0 0 3 0 1 25 
2 0 0 0 2 0 1 25 
3 0 0 0 2 0 1 25 
0 0 0 0 0 0 1 62 
0 0 0 0 0 0 5 27 28 30 35 36 
7 0 0 0 1 0 3 34 32 29 
8 0 0 0 5 0 3 33 32 31 
10 0 0 0 1 0 2 33 31 
7 0 0 0 4 0 2 32 31 
8 0 0 0 2 0 1 37 
5 0 0 0 2 0 1 37 
1 0 0 0 3 0 1 37 
2 0 0 0 2 0 1 37 
6 0 0 0 4 0 1 37 
9 0 0 0 1 0 1 37 
0 0 0 0 0 0 1 62 
0 0 0 0 0 0 4 39 40 41 43 
10 0 0 0 0 1 4 48 47 44 42 
7 0 0 0 0 1 2 46 44 
4 0 0 0 0 4 1 42 
3 0 0 0 0 4 1 45 
6 0 0 0 0 3 1 44 
3 0 0 0 0 2 1 49 
1 0 0 0 0 3 1 49 
6 0 0 0 0 2 1 49 
3 0 0 0 0 2 1 49 
5 0 0 0 0 3 1 49 
0 0 0 0 0 0 1 62 
0 0 0 0 0 0 5 51 52 54 55 60 
3 0 0 0 1 0 4 59 58 57 56 
5 0 0 0 2 0 2 56 53 
5 0 0 0 4 0 1 57 
4 0 0 0 3 0 1 56 
4 0 0 0 1 0 1 56 
2 0 0 0 2 0 1 61 
5 0 0 0 2 0 1 61 
7 0 0 0 1 0 1 61 
9 0 0 0 5 0 1 61 
4 0 0 0 4 0 1 61 
0 0 0 0 0 0 1 62 
0 0 0 0 0 0 2 63 75 
0 0 0 0 0 0 4 64 65 66 67 
4 1 0 0 0 0 3 73 70 68 
8 4 0 0 0 0 3 72 71 69 
5 1 0 0 0 0 3 72 71 69 
9 3 0 0 0 0 3 72 71 69 
1 1 0 0 0 0 2 72 71 
8 2 0 0 0 0 1 73 
4 6 0 0 0 0 1 71 
4 3 0 0 0 0 1 74 
10 1 0 0 0 0 1 74 
5 3 0 0 0 0 1 74 
0 0 0 0 0 0 1 87 
0 0 0 0 0 0 4 76 77 78 79 
3 0 0 0 0 1 3 85 81 80 
2 0 0 0 0 6 3 85 81 80 
5 0 0 0 0 1 3 85 84 81 
6 0 0 0 0 3 3 85 84 81 
3 0 0 0 0 4 3 84 83 82 
1 0 0 0 0 3 2 83 82 
10 0 0 0 0 3 1 86 
1 0 0 0 0 1 1 86 
7 0 0 0 0 1 1 86 
6 0 0 0 0 2 1 86 
0 0 0 0 0 0 1 87 
0 0 0 0 0 0 5 88 89 90 96 97 
6 0 1 0 0 0 4 95 94 92 91 
1 0 2 0 0 0 4 95 94 92 91 
4 0 5 0 0 0 1 91 
9 0 2 0 0 0 1 93 
9 0 2 0 0 0 1 93 
1 0 5 0 0 0 1 98 
3 0 1 0 0 0 1 98 
4 0 4 0 0 0 1 98 
10 0 2 0 0 0 1 98 
9 0 1 0 0 0 1 98 
0 0 0 0 0 0 1 99 
0 0 0 0 0 0 5 100 101 102 108 109 
8 1 0 0 0 0 4 107 106 105 103 
7 1 0 0 0 0 3 107 106 103 
6 2 0 0 0 0 2 105 104 
9 2 0 0 0 0 1 104 
2 3 0 0 0 0 1 110 
7 3 0 0 0 0 1 110 
4 2 0 0 0 0 1 110 
7 6 0 0 0 0 1 110 
7 2 0 0 0 0 1 110 
9 3 0 0 0 0 1 110 
0 0 0 0 0 0 1 111 
0 0 0 0 0 0 5 112 113 114 120 121 
6 0 0 0 1 0 3 118 117 115 
6 0 0 0 4 0 1 116 
2 0 0 0 2 0 1 115 
3 0 0 0 3 0 1 119 
7 0 0 0 3 0 1 119 
3 0 0 0 3 0 1 119 
7 0 0 0 2 0 1 119 
9 0 0 0 2 0 1 122 
6 0 0 0 2 0 1 122 
4 0 0 0 3 0 1 122 
0 0 0 0 0 0 0 
